(set-logic QF_NRA)
(set-info :source |Benchmarks generated from hycomp (https://es-static.fbk.eu/tools/hycomp/). BMC instances of non-linear hybrid automata taken from: Alessandro Cimatti, Sergio Mover, Stefano Tonetta, A quantifier-free SMT encoding of non-linear hybrid automata, FMCAD 2012 and Alessandro Cimatti, Sergio Mover, Stefano Tonetta, Quantier-free encoding of invariants for Hybrid Systems, Formal Methods in System Design. This instance solves a BMC problem of depth 2 and uses the quantifier free encoding with lemmas encoding. Contacts: Sergio Mover (mover@fbk.eu), Stefano Tonetta (tonettas@fbk.eu), Alessandro Cimatti (cimatti@fbk.eu).|)
(set-info :smt-lib-version 2.0)
(set-info :category "industrial")
(set-info :status unsat)
;; MathSAT API call trace
;; generated on Mon Mar 19 10:37:06 2012
(declare-fun b.EVENT.1__AT2 () Bool)
(declare-fun b.y__AT0 () Real)
(declare-fun b.counter.0__AT0 () Bool)
(declare-fun b.speed_y__AT2 () Real)
(declare-fun b.EVENT.0__AT0 () Bool)
(declare-fun b.counter.3__AT0 () Bool)
(declare-fun b.counter.1__AT0 () Bool)
(declare-fun b.event_is_timed__AT1 () Bool)
(declare-fun b.bool_atom__AT1 () Bool)
(declare-fun b.g__AT0 () Real)
(declare-fun b.speed_y__AT0 () Real)
(declare-fun b.x__AT1 () Real)
(declare-fun b.y__AT1 () Real)
(declare-fun b.counter.2__AT0 () Bool)
(declare-fun b.counter.0__AT1 () Bool)
(declare-fun b.counter.1__AT1 () Bool)
(declare-fun b.counter.2__AT1 () Bool)
(declare-fun b.event_is_timed__AT0 () Bool)
(declare-fun b.counter.3__AT1 () Bool)
(declare-fun b.bool_atom__AT0 () Bool)
(declare-fun b.x__AT0 () Real)
(declare-fun b.event_is_timed__AT2 () Bool)
(declare-fun b.counter.0__AT2 () Bool)
(declare-fun b.delta__AT1 () Real)
(declare-fun b.speed_y__AT1 () Real)
(declare-fun b.counter.1__AT2 () Bool)
(declare-fun b.time__AT1 () Real)
(declare-fun b.bool_atom__AT2 () Bool)
(declare-fun b.y__AT2 () Real)
(declare-fun b.EVENT.0__AT1 () Bool)
(declare-fun b.counter.2__AT2 () Bool)
(declare-fun b.time__AT0 () Real)
(declare-fun b.time__AT2 () Real)
(declare-fun b.EVENT.1__AT1 () Bool)
(declare-fun b.counter.3__AT2 () Bool)
(declare-fun b.delta__AT0 () Real)
(declare-fun b.delta__AT2 () Real)
(declare-fun b.EVENT.1__AT0 () Bool)
(declare-fun b.x__AT2 () Real)
(declare-fun b.EVENT.0__AT2 () Bool)
(assert (let ((.def_70 (* (- 1.0) b.g__AT0)))
(let ((.def_73 (* (/ 1 2) .def_70)))
(let ((.def_85 (* 2.0 .def_73)))
(let ((.def_129 (* (- 1.0) .def_85)))
(let ((.def_589 (* .def_129 b.delta__AT2)))
(let ((.def_592 (<= .def_589 b.speed_y__AT2)))
(let ((.def_599 (not .def_592)))
(let ((.def_552 (<= 0.0 b.speed_y__AT2)))
(let ((.def_600 (or .def_552 .def_599)))
(let ((.def_590 (<= b.speed_y__AT2 .def_589)))
(let ((.def_566 (<= b.speed_y__AT2 0.0 )))
(let ((.def_567 (not .def_566)))
(let ((.def_598 (or .def_567 .def_590)))
(let ((.def_601 (and .def_598 .def_600)))
(let ((.def_120 (<= b.g__AT0 0.0 )))
(let ((.def_602 (or .def_120 .def_601)))
(let ((.def_594 (not .def_590)))
(let ((.def_595 (or .def_566 .def_594)))
(let ((.def_553 (not .def_552)))
(let ((.def_593 (or .def_553 .def_592)))
(let ((.def_596 (and .def_593 .def_595)))
(let ((.def_125 (<= 0.0 b.g__AT0)))
(let ((.def_597 (or .def_125 .def_596)))
(let ((.def_603 (and .def_597 .def_602)))
(let ((.def_591 (and .def_566 .def_590)))
(let ((.def_604 (and .def_591 .def_603)))
(let ((.def_548 (* .def_85 b.delta__AT2)))
(let ((.def_549 (+ b.speed_y__AT2 .def_548)))
(let ((.def_564 (<= .def_549 0.0 )))
(let ((.def_565 (not .def_564)))
(let ((.def_584 (or .def_565 .def_566)))
(let ((.def_550 (<= 0.0 .def_549)))
(let ((.def_583 (or .def_550 .def_553)))
(let ((.def_585 (and .def_583 .def_584)))
(let ((.def_586 (or .def_125 .def_585)))
(let ((.def_551 (not .def_550)))
(let ((.def_580 (or .def_551 .def_552)))
(let ((.def_579 (or .def_564 .def_567)))
(let ((.def_581 (and .def_579 .def_580)))
(let ((.def_582 (or .def_120 .def_581)))
(let ((.def_587 (and .def_582 .def_586)))
(let ((.def_578 (and .def_550 .def_552)))
(let ((.def_588 (and .def_578 .def_587)))
(let ((.def_605 (or .def_588 .def_604)))
(let ((.def_539 (* b.speed_y__AT2 b.delta__AT2)))
(let ((.def_537 (* b.delta__AT2 b.delta__AT2)))
(let ((.def_538 (* .def_73 .def_537)))
(let ((.def_540 (+ .def_538 .def_539)))
(let ((.def_523 (* (- 1.0) b.x__AT2)))
(let ((.def_524 (* b.x__AT2 .def_523)))
(let ((.def_541 (* (- 1.0) .def_524)))
(let ((.def_544 (+ .def_541 .def_540)))
(let ((.def_545 (+ b.y__AT2 .def_544)))
(let ((.def_558 (<= .def_545 0.0 )))
(let ((.def_572 (not .def_558)))
(let ((.def_556 (<= b.y__AT2 .def_524)))
(let ((.def_573 (or .def_556 .def_572)))
(let ((.def_525 (<= .def_524 b.y__AT2)))
(let ((.def_570 (not .def_525)))
(let ((.def_546 (<= 0.0 .def_545)))
(let ((.def_571 (or .def_546 .def_570)))
(let ((.def_574 (and .def_571 .def_573)))
(let ((.def_568 (or .def_565 .def_567)))
(let ((.def_569 (not .def_568)))
(let ((.def_575 (or .def_569 .def_574)))
(let ((.def_560 (not .def_546)))
(let ((.def_561 (or .def_525 .def_560)))
(let ((.def_557 (not .def_556)))
(let ((.def_559 (or .def_557 .def_558)))
(let ((.def_562 (and .def_559 .def_561)))
(let ((.def_554 (or .def_551 .def_553)))
(let ((.def_555 (not .def_554)))
(let ((.def_563 (or .def_555 .def_562)))
(let ((.def_576 (and .def_563 .def_575)))
(let ((.def_547 (and .def_525 .def_546)))
(let ((.def_577 (and .def_547 .def_576)))
(let ((.def_606 (and .def_577 .def_605)))
(let ((.def_62 (<= b.g__AT0 10.0 )))
(let ((.def_61 (<= 8.0 b.g__AT0)))
(let ((.def_63 (and .def_61 .def_62)))
(let ((.def_607 (and .def_63 .def_606)))
(let ((.def_217 (not b.counter.0__AT1)))
(let ((.def_207 (not b.counter.1__AT1)))
(let ((.def_529 (and .def_207 .def_217)))
(let ((.def_532 (or b.counter.3__AT1 .def_529)))
(let ((.def_212 (not b.counter.2__AT1)))
(let ((.def_530 (and .def_212 .def_529)))
(let ((.def_226 (not b.counter.3__AT1)))
(let ((.def_531 (or .def_226 .def_530)))
(let ((.def_533 (and .def_531 .def_532)))
(let ((.def_526 (and .def_63 .def_525)))
(let ((.def_520 (not b.EVENT.0__AT2)))
(let ((.def_518 (not b.EVENT.1__AT2)))
(let ((.def_521 (or .def_518 .def_520)))
(let ((.def_6 (not b.counter.0__AT2)))
(let ((.def_4 (not b.counter.1__AT2)))
(let ((.def_511 (or .def_4 .def_6)))
(let ((.def_515 (or b.counter.3__AT2 .def_511)))
(let ((.def_512 (or b.counter.2__AT2 .def_511)))
(let ((.def_9 (not b.counter.2__AT2)))
(let ((.def_510 (or .def_6 .def_9)))
(let ((.def_513 (and .def_510 .def_512)))
(let ((.def_12 (not b.counter.3__AT2)))
(let ((.def_514 (or .def_12 .def_513)))
(let ((.def_516 (and .def_514 .def_515)))
(let ((.def_522 (and .def_516 .def_521)))
(let ((.def_527 (and .def_522 .def_526)))
(let ((.def_505 (<= 0.0 b.delta__AT1)))
(let ((.def_296 (not b.EVENT.0__AT1)))
(let ((.def_294 (not b.EVENT.1__AT1)))
(let ((.def_383 (and .def_294 .def_296)))
(let ((.def_385 (not .def_383)))
(let ((.def_506 (or .def_385 .def_505)))
(let ((.def_507 (or b.EVENT.1__AT1 .def_506)))
(let ((.def_420 (= b.bool_atom__AT1 b.bool_atom__AT2)))
(let ((.def_416 (= b.counter.0__AT2 b.counter.0__AT1)))
(let ((.def_414 (= b.counter.1__AT2 b.counter.1__AT1)))
(let ((.def_412 (= b.counter.2__AT2 b.counter.2__AT1)))
(let ((.def_411 (= b.counter.3__AT2 b.counter.3__AT1)))
(let ((.def_413 (and .def_411 .def_412)))
(let ((.def_415 (and .def_413 .def_414)))
(let ((.def_417 (and .def_415 .def_416)))
(let ((.def_501 (and .def_417 .def_420)))
(let ((.def_502 (or .def_385 .def_501)))
(let ((.def_503 (or b.EVENT.1__AT1 .def_502)))
(let ((.def_490 (* .def_70 b.delta__AT1)))
(let ((.def_491 (* (- 1.0) b.speed_y__AT2)))
(let ((.def_494 (+ .def_491 .def_490)))
(let ((.def_495 (+ b.speed_y__AT1 .def_494)))
(let ((.def_496 (= .def_495 0.0 )))
(let ((.def_481 (* (- 1.0) b.y__AT2)))
(let ((.def_313 (* b.speed_y__AT1 b.delta__AT1)))
(let ((.def_485 (+ .def_313 .def_481)))
(let ((.def_311 (* b.delta__AT1 b.delta__AT1)))
(let ((.def_312 (* .def_73 .def_311)))
(let ((.def_486 (+ .def_312 .def_485)))
(let ((.def_487 (+ b.y__AT1 .def_486)))
(let ((.def_488 (= .def_487 0.0 )))
(let ((.def_403 (= b.x__AT1 b.x__AT2)))
(let ((.def_489 (and .def_403 .def_488)))
(let ((.def_497 (and .def_489 .def_496)))
(let ((.def_498 (or .def_385 .def_497)))
(let ((.def_406 (= b.y__AT1 b.y__AT2)))
(let ((.def_476 (and .def_403 .def_406)))
(let ((.def_409 (= b.speed_y__AT1 b.speed_y__AT2)))
(let ((.def_477 (and .def_409 .def_476)))
(let ((.def_473 (= b.delta__AT1 0.0 )))
(let ((.def_474 (and .def_383 .def_473)))
(let ((.def_475 (not .def_474)))
(let ((.def_478 (or .def_475 .def_477)))
(let ((.def_479 (or b.EVENT.1__AT1 .def_478)))
(let ((.def_466 (and .def_409 .def_417)))
(let ((.def_467 (or b.bool_atom__AT1 .def_466)))
(let ((.def_442 (or .def_6 b.counter.0__AT1)))
(let ((.def_441 (or b.counter.0__AT2 .def_217)))
(let ((.def_443 (and .def_441 .def_442)))
(let ((.def_444 (and .def_4 .def_443)))
(let ((.def_445 (or b.counter.1__AT1 .def_444)))
(let ((.def_440 (or b.counter.1__AT2 .def_207)))
(let ((.def_446 (and .def_440 .def_445)))
(let ((.def_457 (and .def_9 .def_446)))
(let ((.def_458 (or b.counter.2__AT1 .def_457)))
(let ((.def_452 (and .def_4 .def_217)))
(let ((.def_453 (or b.counter.1__AT1 .def_452)))
(let ((.def_454 (and .def_440 .def_453)))
(let ((.def_455 (and b.counter.2__AT2 .def_454)))
(let ((.def_456 (or .def_212 .def_455)))
(let ((.def_459 (and .def_456 .def_458)))
(let ((.def_460 (and b.counter.3__AT2 .def_459)))
(let ((.def_461 (or b.counter.3__AT1 .def_460)))
(let ((.def_447 (and b.counter.2__AT2 .def_446)))
(let ((.def_448 (or b.counter.2__AT1 .def_447)))
(let ((.def_436 (or b.counter.1__AT2 b.counter.1__AT1)))
(let ((.def_434 (and .def_4 b.counter.0__AT2)))
(let ((.def_435 (or .def_207 .def_434)))
(let ((.def_437 (and .def_435 .def_436)))
(let ((.def_438 (and .def_9 .def_437)))
(let ((.def_439 (or .def_212 .def_438)))
(let ((.def_449 (and .def_439 .def_448)))
(let ((.def_450 (and .def_12 .def_449)))
(let ((.def_451 (or .def_226 .def_450)))
(let ((.def_462 (and .def_451 .def_461)))
(let ((.def_431 (* b.speed_y__AT2 b.speed_y__AT2)))
(let ((.def_203 (* b.speed_y__AT1 b.speed_y__AT1)))
(let ((.def_432 (= .def_203 .def_431)))
(let ((.def_429 (+ b.speed_y__AT1 b.speed_y__AT2)))
(let ((.def_430 (= .def_429 0.0 )))
(let ((.def_433 (and .def_430 .def_432)))
(let ((.def_463 (and .def_433 .def_462)))
(let ((.def_428 (not b.bool_atom__AT1)))
(let ((.def_464 (or .def_428 .def_463)))
(let ((.def_299 (* (- 1.0) b.x__AT1)))
(let ((.def_300 (* b.x__AT1 .def_299)))
(let ((.def_425 (= b.y__AT1 .def_300)))
(let ((.def_326 (<= 0.0 b.speed_y__AT1)))
(let ((.def_327 (not .def_326)))
(let ((.def_426 (and .def_327 .def_425)))
(let ((.def_427 (= b.bool_atom__AT1 .def_426)))
(let ((.def_465 (and .def_427 .def_464)))
(let ((.def_468 (and .def_465 .def_467)))
(let ((.def_469 (and .def_403 .def_468)))
(let ((.def_470 (and .def_406 .def_469)))
(let ((.def_471 (or .def_383 .def_470)))
(let ((.def_472 (or b.EVENT.1__AT1 .def_471)))
(let ((.def_480 (and .def_472 .def_479)))
(let ((.def_499 (and .def_480 .def_498)))
(let ((.def_390 (= b.time__AT1 b.time__AT2)))
(let ((.def_404 (and .def_390 .def_403)))
(let ((.def_407 (and .def_404 .def_406)))
(let ((.def_410 (and .def_407 .def_409)))
(let ((.def_418 (and .def_410 .def_417)))
(let ((.def_421 (and .def_418 .def_420)))
(let ((.def_422 (or .def_294 .def_421)))
(let ((.def_393 (* (- 1.0) b.time__AT2)))
(let ((.def_396 (+ b.delta__AT1 .def_393)))
(let ((.def_397 (+ b.time__AT1 .def_396)))
(let ((.def_398 (= .def_397 0.0 )))
(let ((.def_399 (or .def_385 .def_398)))
(let ((.def_400 (or b.EVENT.1__AT1 .def_399)))
(let ((.def_391 (or .def_383 .def_390)))
(let ((.def_392 (or b.EVENT.1__AT1 .def_391)))
(let ((.def_401 (and .def_392 .def_400)))
(let ((.def_423 (and .def_401 .def_422)))
(let ((.def_387 (= .def_385 b.event_is_timed__AT2)))
(let ((.def_384 (= b.event_is_timed__AT1 .def_383)))
(let ((.def_388 (and .def_384 .def_387)))
(let ((.def_424 (and .def_388 .def_423)))
(let ((.def_500 (and .def_424 .def_499)))
(let ((.def_504 (and .def_500 .def_503)))
(let ((.def_508 (and .def_504 .def_507)))
(let ((.def_509 (and .def_294 .def_508)))
(let ((.def_528 (and .def_509 .def_527)))
(let ((.def_534 (and .def_528 .def_533)))
(let ((.def_363 (* .def_129 b.delta__AT1)))
(let ((.def_366 (<= .def_363 b.speed_y__AT1)))
(let ((.def_373 (not .def_366)))
(let ((.def_374 (or .def_326 .def_373)))
(let ((.def_364 (<= b.speed_y__AT1 .def_363)))
(let ((.def_340 (<= b.speed_y__AT1 0.0 )))
(let ((.def_341 (not .def_340)))
(let ((.def_372 (or .def_341 .def_364)))
(let ((.def_375 (and .def_372 .def_374)))
(let ((.def_376 (or .def_120 .def_375)))
(let ((.def_368 (not .def_364)))
(let ((.def_369 (or .def_340 .def_368)))
(let ((.def_367 (or .def_327 .def_366)))
(let ((.def_370 (and .def_367 .def_369)))
(let ((.def_371 (or .def_125 .def_370)))
(let ((.def_377 (and .def_371 .def_376)))
(let ((.def_365 (and .def_340 .def_364)))
(let ((.def_378 (and .def_365 .def_377)))
(let ((.def_322 (* .def_85 b.delta__AT1)))
(let ((.def_323 (+ b.speed_y__AT1 .def_322)))
(let ((.def_338 (<= .def_323 0.0 )))
(let ((.def_339 (not .def_338)))
(let ((.def_358 (or .def_339 .def_340)))
(let ((.def_324 (<= 0.0 .def_323)))
(let ((.def_357 (or .def_324 .def_327)))
(let ((.def_359 (and .def_357 .def_358)))
(let ((.def_360 (or .def_125 .def_359)))
(let ((.def_325 (not .def_324)))
(let ((.def_354 (or .def_325 .def_326)))
(let ((.def_353 (or .def_338 .def_341)))
(let ((.def_355 (and .def_353 .def_354)))
(let ((.def_356 (or .def_120 .def_355)))
(let ((.def_361 (and .def_356 .def_360)))
(let ((.def_352 (and .def_324 .def_326)))
(let ((.def_362 (and .def_352 .def_361)))
(let ((.def_379 (or .def_362 .def_378)))
(let ((.def_314 (+ .def_312 .def_313)))
(let ((.def_315 (* (- 1.0) .def_300)))
(let ((.def_318 (+ .def_315 .def_314)))
(let ((.def_319 (+ b.y__AT1 .def_318)))
(let ((.def_332 (<= .def_319 0.0 )))
(let ((.def_346 (not .def_332)))
(let ((.def_330 (<= b.y__AT1 .def_300)))
(let ((.def_347 (or .def_330 .def_346)))
(let ((.def_301 (<= .def_300 b.y__AT1)))
(let ((.def_344 (not .def_301)))
(let ((.def_320 (<= 0.0 .def_319)))
(let ((.def_345 (or .def_320 .def_344)))
(let ((.def_348 (and .def_345 .def_347)))
(let ((.def_342 (or .def_339 .def_341)))
(let ((.def_343 (not .def_342)))
(let ((.def_349 (or .def_343 .def_348)))
(let ((.def_334 (not .def_320)))
(let ((.def_335 (or .def_301 .def_334)))
(let ((.def_331 (not .def_330)))
(let ((.def_333 (or .def_331 .def_332)))
(let ((.def_336 (and .def_333 .def_335)))
(let ((.def_328 (or .def_325 .def_327)))
(let ((.def_329 (not .def_328)))
(let ((.def_337 (or .def_329 .def_336)))
(let ((.def_350 (and .def_337 .def_349)))
(let ((.def_321 (and .def_301 .def_320)))
(let ((.def_351 (and .def_321 .def_350)))
(let ((.def_380 (and .def_351 .def_379)))
(let ((.def_381 (and .def_63 .def_380)))
(let ((.def_32 (not b.counter.0__AT0)))
(let ((.def_30 (not b.counter.1__AT0)))
(let ((.def_33 (and .def_30 .def_32)))
(let ((.def_306 (or .def_33 b.counter.3__AT0)))
(let ((.def_38 (not b.counter.3__AT0)))
(let ((.def_35 (not b.counter.2__AT0)))
(let ((.def_36 (and .def_33 .def_35)))
(let ((.def_305 (or .def_36 .def_38)))
(let ((.def_307 (and .def_305 .def_306)))
(let ((.def_302 (and .def_63 .def_301)))
(let ((.def_297 (or .def_294 .def_296)))
(let ((.def_287 (or .def_207 .def_217)))
(let ((.def_291 (or b.counter.3__AT1 .def_287)))
(let ((.def_288 (or b.counter.2__AT1 .def_287)))
(let ((.def_286 (or .def_212 .def_217)))
(let ((.def_289 (and .def_286 .def_288)))
(let ((.def_290 (or .def_226 .def_289)))
(let ((.def_292 (and .def_290 .def_291)))
(let ((.def_298 (and .def_292 .def_297)))
(let ((.def_303 (and .def_298 .def_302)))
(let ((.def_281 (<= 0.0 b.delta__AT0)))
(let ((.def_51 (not b.EVENT.0__AT0)))
(let ((.def_49 (not b.EVENT.1__AT0)))
(let ((.def_150 (and .def_49 .def_51)))
(let ((.def_152 (not .def_150)))
(let ((.def_282 (or .def_152 .def_281)))
(let ((.def_283 (or b.EVENT.1__AT0 .def_282)))
(let ((.def_192 (= b.bool_atom__AT0 b.bool_atom__AT1)))
(let ((.def_187 (= b.counter.0__AT0 b.counter.0__AT1)))
(let ((.def_184 (= b.counter.1__AT0 b.counter.1__AT1)))
(let ((.def_181 (= b.counter.2__AT0 b.counter.2__AT1)))
(let ((.def_179 (= b.counter.3__AT0 b.counter.3__AT1)))
(let ((.def_182 (and .def_179 .def_181)))
(let ((.def_185 (and .def_182 .def_184)))
(let ((.def_188 (and .def_185 .def_187)))
(let ((.def_277 (and .def_188 .def_192)))
(let ((.def_278 (or .def_152 .def_277)))
(let ((.def_279 (or b.EVENT.1__AT0 .def_278)))
(let ((.def_266 (* b.delta__AT0 .def_70)))
(let ((.def_267 (* (- 1.0) b.speed_y__AT1)))
(let ((.def_270 (+ .def_267 .def_266)))
(let ((.def_271 (+ b.speed_y__AT0 .def_270)))
(let ((.def_272 (= .def_271 0.0 )))
(let ((.def_258 (* (- 1.0) b.y__AT1)))
(let ((.def_76 (* b.delta__AT0 b.speed_y__AT0)))
(let ((.def_261 (+ .def_76 .def_258)))
(let ((.def_69 (* b.delta__AT0 b.delta__AT0)))
(let ((.def_74 (* .def_69 .def_73)))
(let ((.def_262 (+ .def_74 .def_261)))
(let ((.def_263 (+ b.y__AT0 .def_262)))
(let ((.def_264 (= .def_263 0.0 )))
(let ((.def_170 (= b.x__AT0 b.x__AT1)))
(let ((.def_265 (and .def_170 .def_264)))
(let ((.def_273 (and .def_265 .def_272)))
(let ((.def_274 (or .def_152 .def_273)))
(let ((.def_173 (= b.y__AT0 b.y__AT1)))
(let ((.def_253 (and .def_170 .def_173)))
(let ((.def_176 (= b.speed_y__AT0 b.speed_y__AT1)))
(let ((.def_254 (and .def_176 .def_253)))
(let ((.def_250 (= b.delta__AT0 0.0 )))
(let ((.def_251 (and .def_150 .def_250)))
(let ((.def_252 (not .def_251)))
(let ((.def_255 (or .def_252 .def_254)))
(let ((.def_256 (or b.EVENT.1__AT0 .def_255)))
(let ((.def_243 (and .def_176 .def_188)))
(let ((.def_244 (or b.bool_atom__AT0 .def_243)))
(let ((.def_218 (or b.counter.0__AT0 .def_217)))
(let ((.def_216 (or .def_32 b.counter.0__AT1)))
(let ((.def_219 (and .def_216 .def_218)))
(let ((.def_220 (and .def_207 .def_219)))
(let ((.def_221 (or b.counter.1__AT0 .def_220)))
(let ((.def_215 (or .def_30 b.counter.1__AT1)))
(let ((.def_222 (and .def_215 .def_221)))
(let ((.def_234 (and .def_212 .def_222)))
(let ((.def_235 (or b.counter.2__AT0 .def_234)))
(let ((.def_229 (and .def_32 .def_207)))
(let ((.def_230 (or b.counter.1__AT0 .def_229)))
(let ((.def_231 (and .def_215 .def_230)))
(let ((.def_232 (and b.counter.2__AT1 .def_231)))
(let ((.def_233 (or .def_35 .def_232)))
(let ((.def_236 (and .def_233 .def_235)))
(let ((.def_237 (and b.counter.3__AT1 .def_236)))
(let ((.def_238 (or b.counter.3__AT0 .def_237)))
(let ((.def_223 (and b.counter.2__AT1 .def_222)))
(let ((.def_224 (or b.counter.2__AT0 .def_223)))
(let ((.def_210 (or b.counter.1__AT0 b.counter.1__AT1)))
(let ((.def_208 (and b.counter.0__AT1 .def_207)))
(let ((.def_209 (or .def_30 .def_208)))
(let ((.def_211 (and .def_209 .def_210)))
(let ((.def_213 (and .def_211 .def_212)))
(let ((.def_214 (or .def_35 .def_213)))
(let ((.def_225 (and .def_214 .def_224)))
(let ((.def_227 (and .def_225 .def_226)))
(let ((.def_228 (or .def_38 .def_227)))
(let ((.def_239 (and .def_228 .def_238)))
(let ((.def_204 (* b.speed_y__AT0 b.speed_y__AT0)))
(let ((.def_205 (= .def_203 .def_204)))
(let ((.def_201 (+ b.speed_y__AT0 b.speed_y__AT1)))
(let ((.def_202 (= .def_201 0.0 )))
(let ((.def_206 (and .def_202 .def_205)))
(let ((.def_240 (and .def_206 .def_239)))
(let ((.def_200 (not b.bool_atom__AT0)))
(let ((.def_241 (or .def_200 .def_240)))
(let ((.def_56 (* (- 1.0) b.x__AT0)))
(let ((.def_57 (* b.x__AT0 .def_56)))
(let ((.def_197 (= b.y__AT0 .def_57)))
(let ((.def_90 (<= 0.0 b.speed_y__AT0)))
(let ((.def_91 (not .def_90)))
(let ((.def_198 (and .def_91 .def_197)))
(let ((.def_199 (= b.bool_atom__AT0 .def_198)))
(let ((.def_242 (and .def_199 .def_241)))
(let ((.def_245 (and .def_242 .def_244)))
(let ((.def_246 (and .def_170 .def_245)))
(let ((.def_247 (and .def_173 .def_246)))
(let ((.def_248 (or .def_150 .def_247)))
(let ((.def_249 (or b.EVENT.1__AT0 .def_248)))
(let ((.def_257 (and .def_249 .def_256)))
(let ((.def_275 (and .def_257 .def_274)))
(let ((.def_157 (= b.time__AT0 b.time__AT1)))
(let ((.def_171 (and .def_157 .def_170)))
(let ((.def_174 (and .def_171 .def_173)))
(let ((.def_177 (and .def_174 .def_176)))
(let ((.def_189 (and .def_177 .def_188)))
(let ((.def_193 (and .def_189 .def_192)))
(let ((.def_194 (or .def_49 .def_193)))
(let ((.def_160 (* (- 1.0) b.time__AT1)))
(let ((.def_163 (+ b.delta__AT0 .def_160)))
(let ((.def_164 (+ b.time__AT0 .def_163)))
(let ((.def_165 (= .def_164 0.0 )))
(let ((.def_166 (or .def_152 .def_165)))
(let ((.def_167 (or b.EVENT.1__AT0 .def_166)))
(let ((.def_158 (or .def_150 .def_157)))
(let ((.def_159 (or b.EVENT.1__AT0 .def_158)))
(let ((.def_168 (and .def_159 .def_167)))
(let ((.def_195 (and .def_168 .def_194)))
(let ((.def_154 (= .def_152 b.event_is_timed__AT1)))
(let ((.def_151 (= b.event_is_timed__AT0 .def_150)))
(let ((.def_155 (and .def_151 .def_154)))
(let ((.def_196 (and .def_155 .def_195)))
(let ((.def_276 (and .def_196 .def_275)))
(let ((.def_280 (and .def_276 .def_279)))
(let ((.def_284 (and .def_280 .def_283)))
(let ((.def_285 (and .def_49 .def_284)))
(let ((.def_304 (and .def_285 .def_303)))
(let ((.def_308 (and .def_304 .def_307)))
(let ((.def_130 (* b.delta__AT0 .def_129)))
(let ((.def_133 (<= .def_130 b.speed_y__AT0)))
(let ((.def_140 (not .def_133)))
(let ((.def_141 (or .def_90 .def_140)))
(let ((.def_131 (<= b.speed_y__AT0 .def_130)))
(let ((.def_104 (<= b.speed_y__AT0 0.0 )))
(let ((.def_105 (not .def_104)))
(let ((.def_139 (or .def_105 .def_131)))
(let ((.def_142 (and .def_139 .def_141)))
(let ((.def_143 (or .def_120 .def_142)))
(let ((.def_135 (not .def_131)))
(let ((.def_136 (or .def_104 .def_135)))
(let ((.def_134 (or .def_91 .def_133)))
(let ((.def_137 (and .def_134 .def_136)))
(let ((.def_138 (or .def_125 .def_137)))
(let ((.def_144 (and .def_138 .def_143)))
(let ((.def_132 (and .def_104 .def_131)))
(let ((.def_145 (and .def_132 .def_144)))
(let ((.def_86 (* b.delta__AT0 .def_85)))
(let ((.def_87 (+ b.speed_y__AT0 .def_86)))
(let ((.def_102 (<= .def_87 0.0 )))
(let ((.def_103 (not .def_102)))
(let ((.def_123 (or .def_103 .def_104)))
(let ((.def_88 (<= 0.0 .def_87)))
(let ((.def_122 (or .def_88 .def_91)))
(let ((.def_124 (and .def_122 .def_123)))
(let ((.def_126 (or .def_124 .def_125)))
(let ((.def_89 (not .def_88)))
(let ((.def_118 (or .def_89 .def_90)))
(let ((.def_117 (or .def_102 .def_105)))
(let ((.def_119 (and .def_117 .def_118)))
(let ((.def_121 (or .def_119 .def_120)))
(let ((.def_127 (and .def_121 .def_126)))
(let ((.def_116 (and .def_88 .def_90)))
(let ((.def_128 (and .def_116 .def_127)))
(let ((.def_146 (or .def_128 .def_145)))
(let ((.def_77 (+ .def_74 .def_76)))
(let ((.def_78 (* (- 1.0) .def_57)))
(let ((.def_81 (+ .def_78 .def_77)))
(let ((.def_82 (+ b.y__AT0 .def_81)))
(let ((.def_96 (<= .def_82 0.0 )))
(let ((.def_110 (not .def_96)))
(let ((.def_94 (<= b.y__AT0 .def_57)))
(let ((.def_111 (or .def_94 .def_110)))
(let ((.def_58 (<= .def_57 b.y__AT0)))
(let ((.def_108 (not .def_58)))
(let ((.def_83 (<= 0.0 .def_82)))
(let ((.def_109 (or .def_83 .def_108)))
(let ((.def_112 (and .def_109 .def_111)))
(let ((.def_106 (or .def_103 .def_105)))
(let ((.def_107 (not .def_106)))
(let ((.def_113 (or .def_107 .def_112)))
(let ((.def_98 (not .def_83)))
(let ((.def_99 (or .def_58 .def_98)))
(let ((.def_95 (not .def_94)))
(let ((.def_97 (or .def_95 .def_96)))
(let ((.def_100 (and .def_97 .def_99)))
(let ((.def_92 (or .def_89 .def_91)))
(let ((.def_93 (not .def_92)))
(let ((.def_101 (or .def_93 .def_100)))
(let ((.def_114 (and .def_101 .def_113)))
(let ((.def_84 (and .def_58 .def_83)))
(let ((.def_115 (and .def_84 .def_114)))
(let ((.def_147 (and .def_115 .def_146)))
(let ((.def_148 (and .def_63 .def_147)))
(let ((.def_64 (and .def_58 .def_63)))
(let ((.def_52 (or .def_49 .def_51)))
(let ((.def_42 (or .def_30 .def_32)))
(let ((.def_46 (or b.counter.3__AT0 .def_42)))
(let ((.def_43 (or b.counter.2__AT0 .def_42)))
(let ((.def_41 (or .def_32 .def_35)))
(let ((.def_44 (and .def_41 .def_43)))
(let ((.def_45 (or .def_38 .def_44)))
(let ((.def_47 (and .def_45 .def_46)))
(let ((.def_53 (and .def_47 .def_52)))
(let ((.def_65 (and .def_53 .def_64)))
(let ((.def_39 (and .def_36 .def_38)))
(let ((.def_27 (= b.y__AT0 10.0 )))
(let ((.def_23 (= b.x__AT0 0.0 )))
(let ((.def_19 (= b.time__AT0 0.0 )))
(let ((.def_21 (and .def_19 b.event_is_timed__AT0)))
(let ((.def_24 (and .def_21 .def_23)))
(let ((.def_28 (and .def_24 .def_27)))
(let ((.def_40 (and .def_28 .def_39)))
(let ((.def_66 (and .def_40 .def_65)))
(let ((.def_7 (and .def_4 .def_6)))
(let ((.def_14 (or .def_7 b.counter.3__AT2)))
(let ((.def_10 (and .def_7 .def_9)))
(let ((.def_13 (or .def_10 .def_12)))
(let ((.def_15 (and .def_13 .def_14)))
(let ((.def_16 (not .def_15)))
(let ((.def_67 (and .def_16 .def_66)))
(let ((.def_149 (and .def_67 .def_148)))
(let ((.def_309 (and .def_149 .def_308)))
(let ((.def_382 (and .def_309 .def_381)))
(let ((.def_535 (and .def_382 .def_534)))
(let ((.def_608 (and .def_535 .def_607)))
.def_608)))))))))))))))))))))))))))))))))))))))))))))))))))))))))))))))))))))))))))))))))))))))))))))))))))))))))))))))))))))))))))))))))))))))))))))))))))))))))))))))))))))))))))))))))))))))))))))))))))))))))))))))))))))))))))))))))))))))))))))))))))))))))))))))))))))))))))))))))))))))))))))))))))))))))))))))))))))))))))))))))))))))))))))))))))))))))))))))))))))))))))))))))))))))))))))))))))))))))))))))))))))))))))))))))))))))))))))))))))))))))))))))))))))))))))))))))))))))))))))))))))))))))))))))))))))))))))))))))))))))))))))))))))))))))))))
(check-sat)
(exit)
